p cnf 40 96
w 1 1
w 2 0.880797
w 3 0.880797
w 4 1
w 5 0.880797
w 6 0.880797
w 7 1
w 8 0.880797
w 9 0.880797
w 10 1
w 11 0.880797
w 12 1
w 13 0.880797
w 14 0.880797
w 15 1
w 16 0.880797
w 17 0.880797
w 18 1
w 19 0.880797
w 20 0.880797
w 21 1
w 22 0.880797
w 23 1
w 24 0.880797
w 25 0.880797
w 26 1
w 27 0.880797
w 28 0.880797
w 29 1
w 30 0.880797
w 31 0.880797
w 32 1
w 33 0.880797
w 34 1
w 35 0.880797
w 36 1
w 37 0.880797
w 38 1
w 39 0.880797
w 40 1
2 1 4 0
2 -1 -4 0
-2 1 -4 0
-2 -1 4 0
3 1 12 0
3 -1 -12 0
-3 1 -12 0
-3 -1 12 0
5 4 7 0
5 -4 -7 0
-5 4 -7 0
-5 -4 7 0
6 4 15 0
6 -4 -15 0
-6 4 -15 0
-6 -4 15 0
8 7 10 0
8 -7 -10 0
-8 7 -10 0
-8 -7 10 0
9 7 18 0
9 -7 -18 0
-9 7 -18 0
-9 -7 18 0
11 10 21 0
11 -10 -21 0
-11 10 -21 0
-11 -10 21 0
13 12 15 0
13 -12 -15 0
-13 12 -15 0
-13 -12 15 0
14 12 23 0
14 -12 -23 0
-14 12 -23 0
-14 -12 23 0
16 15 18 0
16 -15 -18 0
-16 15 -18 0
-16 -15 18 0
17 15 26 0
17 -15 -26 0
-17 15 -26 0
-17 -15 26 0
19 18 21 0
19 -18 -21 0
-19 18 -21 0
-19 -18 21 0
20 18 29 0
20 -18 -29 0
-20 18 -29 0
-20 -18 29 0
22 21 32 0
22 -21 -32 0
-22 21 -32 0
-22 -21 32 0
24 23 26 0
24 -23 -26 0
-24 23 -26 0
-24 -23 26 0
25 23 34 0
25 -23 -34 0
-25 23 -34 0
-25 -23 34 0
27 26 29 0
27 -26 -29 0
-27 26 -29 0
-27 -26 29 0
28 26 36 0
28 -26 -36 0
-28 26 -36 0
-28 -26 36 0
30 29 32 0
30 -29 -32 0
-30 29 -32 0
-30 -29 32 0
31 29 38 0
31 -29 -38 0
-31 29 -38 0
-31 -29 38 0
33 32 40 0
33 -32 -40 0
-33 32 -40 0
-33 -32 40 0
35 34 36 0
35 -34 -36 0
-35 34 -36 0
-35 -34 36 0
37 36 38 0
37 -36 -38 0
-37 36 -38 0
-37 -36 38 0
39 38 40 0
39 -38 -40 0
-39 38 -40 0
-39 -38 40 0
